0, 1, 2, 9, 12, 32, 33, 67, 68, 69, 36, 70, 74, 75, 77, 76, 78, 79, 80, 81, 82, 83, 84, 85, 73, 72, 71, 38, 37, 29, 30, 35, 34, 31, 13, 10, 8, 3, 7, 11, 14, 15, 28, 27, 26, 39, 40, 66, 65, 64, 63, 62, 61, 60, 59, 56, 55, 54, 51, 50, 49, 48, 47, 46, 45, 44, 52, 53, 57, 58, 43, 42, 41, 24, 23, 22, 21, 19, 20, 25, 18, 17, 16, 5, 6, 4